234
3379
169
0 2
0 4
0 5
0 10
0 16
0 46
0 100
0 116
0 125
0 133
0 183
0 201
1 3
1 6
1 12
1 15
1 101
1 106
1 117
1 118
1 120
1 121
1 135
2 4
2 5
2 10
2 16
2 18
2 22
2 26
2 27
2 32
2 46
2 53
2 54
2 71
2 100
2 116
2 125
2 133
2 165
2 183
2 201
3 4
3 6
3 10
3 12
3 15
3 16
3 19
3 20
3 23
3 28
3 29
3 31
3 34
3 35
3 37
3 40
3 45
3 46
3 48
3 50
3 55
3 56
3 57
3 61
3 67
3 84
3 86
3 101
3 106
3 117
3 118
3 120
3 121
3 125
3 135
3 167
3 170
3 188
3 202
3 206
3 220
3 223
4 5
4 10
4 16
4 19
4 20
4 23
4 28
4 29
4 31
4 35
4 37
4 40
4 45
4 46
4 48
4 50
4 55
4 56
4 57
4 61
4 67
4 100
4 116
4 125
4 133
4 167
4 170
4 183
4 188
4 201
4 206
4 223
5 6
5 10
5 12
5 15
5 16
5 18
5 22
5 26
5 27
5 32
5 36
5 38
5 39
5 43
5 44
5 46
5 49
5 53
5 54
5 71
5 100
5 106
5 116
5 120
5 121
5 125
5 133
5 165
5 183
5 201
6 12
6 15
6 22
6 26
6 27
6 32
6 36
6 38
6 39
6 43
6 44
6 49
6 54
6 101
6 106
6 117
6 118
6 120
6 121
6 135
7 8
7 9
7 11
7 13
7 14
7 21
7 24
7 25
7 30
7 41
7 42
7 47
7 58
7 90
7 119
7 122
7 126
7 140
7 153
7 171
7 191
7 205
7 208
7 227
8 9
8 11
8 13
8 14
8 21
8 24
8 25
8 30
8 41
8 42
8 47
8 58
9 11
9 13
9 14
9 21
9 24
9 25
9 30
9 41
9 42
9 47
9 58
9 78
9 108
9 110
9 112
9 113
9 123
9 124
9 127
9 128
9 129
9 130
10 16
10 19
10 20
10 23
10 28
10 29
10 31
10 35
10 37
10 40
10 45
10 46
10 48
10 59
10 60
10 62
10 63
10 64
10 65
10 66
10 79
10 100
10 111
10 116
10 125
10 126
10 133
10 183
10 201
11 13
11 14
11 21
11 24
11 25
11 30
11 41
11 42
11 47
11 58
11 78
11 108
11 110
11 112
11 113
11 123
11 124
11 127
11 128
11 129
11 130
11 132
11 137
11 143
11 144
11 156
11 158
11 181
11 182
11 186
11 188
11 196
11 213
12 15
12 22
12 26
12 27
12 32
12 36
12 38
12 39
12 43
12 44
12 49
12 54
12 63
12 67
12 80
12 82
12 83
12 94
12 95
12 96
12 98
12 101
12 106
12 114
12 117
12 118
12 120
12 121
12 127
12 135
12 161
12 216
12 228
12 231
13 14
13 21
13 24
13 25
13 30
13 41
13 42
13 47
13 58
13 78
13 108
13 110
13 112
13 113
13 123
13 124
13 127
13 128
13 129
13 130
13 132
13 137
13 143
13 144
13 156
13 158
13 213
14 21
14 24
14 25
14 30
14 41
14 42
14 47
14 58
14 78
14 81
14 96
14 97
14 108
14 110
14 112
14 113
14 123
14 124
14 127
14 128
14 129
14 130
14 136
14 145
14 146
14 157
14 159
14 160
15 22
15 26
15 27
15 32
15 36
15 38
15 39
15 43
15 44
15 49
15 54
15 67
15 80
15 82
15 83
15 94
15 95
15 96
15 98
15 101
15 106
15 114
15 117
15 118
15 120
15 121
15 135
15 161
16 19
16 20
16 23
16 28
16 29
16 31
16 35
16 37
16 40
16 45
16 46
16 48
16 59
16 60
16 62
16 63
16 64
16 65
16 66
16 79
16 100
16 111
16 116
16 125
16 126
16 133
16 162
16 169
16 176
16 178
16 179
16 183
16 201
17 21
17 24
17 25
17 30
17 51
17 58
17 68
17 84
17 163
17 181
18 22
18 26
18 27
18 32
18 53
18 54
18 71
18 165
19 20
19 23
19 28
19 29
19 31
19 35
19 37
19 40
19 45
19 46
19 48
19 125
20 23
20 28
20 29
20 31
20 35
20 37
20 40
20 45
20 46
20 48
20 50
20 55
20 56
20 57
20 61
20 67
20 125
20 167
20 170
20 188
20 206
20 223
21 24
21 25
21 30
21 41
21 42
21 47
21 51
21 58
21 68
21 84
21 90
21 99
21 102
21 103
21 104
21 105
21 109
21 111
21 114
21 119
21 122
21 126
21 140
21 153
21 163
21 171
21 181
21 191
21 205
21 208
21 227
22 26
22 27
22 32
22 36
22 38
22 39
22 43
22 44
22 49
22 53
22 54
22 71
22 106
22 120
22 121
22 165
23 28
23 29
23 31
23 35
23 37
23 39
23 40
23 45
23 46
23 48
23 50
23 55
23 56
23 57
23 61
23 67
23 75
23 76
23 78
23 91
23 125
23 154
23 167
23 170
23 188
23 190
23 206
23 209
23 223
24 25
24 30
24 41
24 42
24 47
24 51
24 58
24 68
24 84
24 163
24 181
25 30
25 41
25 42
25 47
25 51
25 58
25 68
25 78
25 84
25 108
25 110
25 112
25 113
25 123
25 124
25 127
25 128
25 129
25 130
25 163
25 181
26 27
26 32
26 36
26 38
26 39
26 43
26 44
26 49
26 53
26 54
26 61
26 71
26 77
26 81
26 90
26 92
26 93
26 97
26 106
26 109
26 120
26 121
26 148
26 153
26 155
26 156
26 157
26 158
26 159
26 160
26 165
26 230
27 32
27 36
27 38
27 39
27 43
27 44
27 49
27 53
27 54
27 61
27 71
27 77
27 81
27 90
27 92
27 93
27 97
27 106
27 109
27 120
27 121
27 165
27 230
28 29
28 31
28 35
28 37
28 40
28 45
28 46
28 48
28 59
28 60
28 62
28 63
28 64
28 65
28 66
28 79
28 111
28 125
28 126
29 31
29 35
29 37
29 40
29 45
29 46
29 48
29 59
29 60
29 62
29 63
29 64
29 65
29 66
29 79
29 111
29 125
29 126
29 168
29 171
29 172
29 173
29 174
29 175
29 177
29 215
30 41
30 42
30 47
30 51
30 58
30 68
30 78
30 84
30 108
30 110
30 112
30 113
30 123
30 124
30 127
30 128
30 129
30 130
30 132
30 137
30 143
30 144
30 156
30 158
30 163
30 181
30 213
31 35
31 37
31 40
31 45
31 46
31 48
31 59
31 60
31 62
31 63
31 64
31 65
31 66
31 79
31 111
31 125
31 126
31 162
31 169
31 176
31 178
31 179
32 36
32 38
32 39
32 43
32 44
32 49
32 53
32 54
32 67
32 71
32 80
32 82
32 83
32 94
32 95
32 96
32 98
32 106
32 114
32 120
32 121
32 161
32 165
33 41
33 42
33 46
33 47
33 69
33 85
33 99
33 147
33 162
33 199
33 218
34 35
34 37
34 40
34 45
34 48
34 84
34 86
34 117
34 202
34 220
35 37
35 40
35 45
35 46
35 48
35 84
35 86
35 117
35 125
35 202
35 220
36 38
36 39
36 43
36 44
36 49
36 54
36 88
36 89
36 91
36 106
36 120
36 121
36 138
36 150
36 151
36 154
36 168
36 185
36 187
36 190
36 203
36 209
36 224
37 40
37 45
37 46
37 48
37 50
37 55
37 56
37 57
37 61
37 67
37 84
37 86
37 117
37 125
37 167
37 170
37 188
37 202
37 206
37 220
37 223
38 39
38 43
38 44
38 49
38 54
38 106
38 120
38 121
39 40
39 43
39 44
39 49
39 50
39 54
39 56
39 57
39 75
39 76
39 78
39 88
39 89
39 91
39 106
39 120
39 121
39 138
39 150
39 151
39 154
39 168
39 170
39 185
39 187
39 190
39 203
39 209
39 224
40 45
40 46
40 48
40 50
40 55
40 56
40 57
40 61
40 67
40 75
40 76
40 78
40 84
40 86
40 91
40 117
40 125
40 154
40 167
40 170
40 188
40 190
40 202
40 206
40 209
40 220
40 223
41 42
41 46
41 47
41 58
41 69
41 85
41 99
41 147
41 162
41 199
41 218
42 46
42 47
42 58
42 69
42 78
42 85
42 99
42 108
42 110
42 112
42 113
42 123
42 124
42 127
42 128
42 129
42 130
42 147
42 162
42 199
42 218
43 44
43 49
43 54
43 61
43 77
43 81
43 90
43 92
43 93
43 97
43 106
43 109
43 120
43 121
43 148
43 153
43 155
43 156
43 157
43 158
43 159
43 160
43 230
44 49
44 54
44 61
44 77
44 81
44 90
44 92
44 93
44 97
44 106
44 109
44 120
44 121
44 230
45 46
45 48
45 59
45 60
45 62
45 63
45 64
45 65
45 66
45 79
45 84
45 86
45 111
45 117
45 125
45 126
45 202
45 220
46 47
46 48
46 59
46 60
46 62
46 63
46 64
46 65
46 66
46 69
46 79
46 85
46 99
46 100
46 111
46 116
46 125
46 126
46 133
46 147
46 162
46 183
46 199
46 201
46 218
47 58
47 69
47 78
47 85
47 99
47 108
47 110
47 112
47 113
47 123
47 124
47 127
47 128
47 129
47 130
47 132
47 137
47 143
47 144
47 147
47 156
47 158
47 162
47 199
47 213
47 218
48 59
48 60
48 62
48 63
48 64
48 65
48 66
48 79
48 84
48 86
48 111
48 117
48 125
48 126
48 168
48 171
48 172
48 173
48 174
48 175
48 177
48 202
48 215
48 220
49 54
49 59
49 65
49 67
49 80
49 82
49 83
49 94
49 95
49 96
49 98
49 106
49 114
49 120
49 121
49 161
49 173
49 176
49 178
49 194
49 197
49 226
49 227
49 229
49 233
50 55
50 56
50 57
50 61
50 67
50 75
50 76
50 78
50 91
50 100
50 101
50 106
50 107
50 108
50 110
50 112
50 113
50 115
50 116
50 117
50 118
50 120
50 121
50 125
50 131
50 133
50 135
50 148
50 154
50 167
50 170
50 180
50 183
50 188
50 190
50 200
50 201
50 206
50 209
50 223
51 52
51 53
51 54
51 58
51 68
51 70
51 71
51 84
51 132
51 163
51 164
51 165
51 181
51 182
51 219
52 53
52 54
52 58
52 68
52 70
52 71
52 132
52 163
52 164
52 165
52 181
52 182
52 219
53 54
53 58
53 68
53 70
53 71
53 132
53 163
53 164
53 165
53 181
53 182
53 219
54 58
54 68
54 70
54 71
54 106
54 120
54 121
54 132
54 163
54 164
54 165
54 181
54 182
54 219
55 56
55 57
55 61
55 67
55 69
55 72
55 74
55 77
55 80
55 81
55 82
55 83
55 99
55 102
55 105
55 109
55 114
55 167
55 170
55 188
55 206
55 223
56 57
56 61
56 67
56 75
56 76
56 78
56 91
56 154
56 167
56 170
56 188
56 190
56 206
56 209
56 223
57 61
57 67
57 75
57 76
57 78
57 91
57 100
57 101
57 106
57 107
57 108
57 110
57 112
57 113
57 154
57 167
57 170
57 188
57 190
57 206
57 209
57 223
58 68
58 70
58 71
58 84
58 132
58 163
58 164
58 165
58 181
58 182
58 219
59 60
59 62
59 63
59 64
59 65
59 66
59 79
59 82
59 111
59 125
59 126
59 162
59 169
59 173
59 176
59 178
59 179
59 194
59 197
59 200
59 201
59 205
59 208
59 210
59 211
59 212
59 213
59 226
59 227
59 229
59 233
60 62
60 63
60 64
60 65
60 66
60 79
60 96
60 111
60 125
60 126
60 168
60 171
60 172
60 173
60 174
60 175
60 177
60 180
60 183
60 187
60 191
60 192
60 193
60 215
60 228
60 231
61 67
61 69
61 72
61 74
61 77
61 80
61 81
61 82
61 83
61 90
61 92
61 93
61 97
61 99
61 102
61 105
61 109
61 114
61 167
61 170
61 188
61 206
61 223
61 230
62 63
62 64
62 65
62 66
62 79
62 111
62 125
62 126
63 64
63 65
63 66
63 79
63 80
63 95
63 96
63 111
63 125
63 126
63 127
63 162
63 169
63 176
63 178
63 179
63 216
63 228
63 231
64 65
64 66
64 79
64 111
64 125
64 126
64 168
64 171
64 172
64 173
64 174
64 175
64 177
64 215
65 66
65 79
65 82
65 111
65 125
65 126
65 162
65 169
65 173
65 176
65 178
65 179
65 194
65 197
65 226
65 227
65 229
65 233
66 79
66 111
66 125
66 126
66 162
66 169
66 176
66 178
66 179
67 69
67 72
67 74
67 77
67 80
67 81
67 82
67 83
67 94
67 95
67 96
67 98
67 99
67 102
67 105
67 109
67 114
67 161
67 167
67 170
67 188
67 206
67 223
68 70
68 71
68 73
68 79
68 84
68 88
68 103
68 111
68 126
68 132
68 150
68 163
68 164
68 165
68 181
68 182
68 185
68 203
68 219
69 72
69 74
69 77
69 80
69 81
69 82
69 83
69 84
69 85
69 86
69 87
69 99
69 102
69 105
69 109
69 114
69 134
69 147
69 149
69 162
69 184
69 199
69 202
69 218
69 220
69 221
70 71
70 73
70 79
70 88
70 103
70 111
70 126
70 132
70 150
70 163
70 164
70 165
70 181
70 182
70 185
70 203
70 219
71 73
71 79
71 88
71 103
71 111
71 126
71 132
71 150
71 163
71 164
71 165
71 181
71 182
71 185
71 203
71 219
72 74
72 77
72 80
72 81
72 82
72 83
72 84
72 85
72 86
72 87
72 99
72 102
72 105
72 109
72 114
72 134
72 147
72 149
72 162
72 184
72 199
72 202
72 218
72 220
72 221
73 79
73 88
73 103
73 111
73 126
73 150
73 185
73 203
74 77
74 80
74 81
74 82
74 83
74 99
74 102
74 105
74 109
74 114
75 76
75 78
75 91
75 154
75 170
75 190
75 209
76 78
76 91
76 100
76 101
76 106
76 107
76 108
76 110
76 112
76 113
76 154
76 170
76 190
76 209
77 80
77 81
77 82
77 83
77 90
77 92
77 93
77 97
77 99
77 102
77 105
77 109
77 114
77 230
78 91
78 100
78 101
78 106
78 107
78 108
78 110
78 112
78 113
78 123
78 124
78 127
78 128
78 129
78 130
78 134
78 138
78 139
78 142
78 154
78 170
78 175
78 176
78 187
78 190
78 193
78 194
78 209
78 212
78 226
78 231
79 88
79 103
79 111
79 125
79 126
79 150
79 185
79 203
80 81
80 82
80 83
80 94
80 95
80 96
80 98
80 99
80 102
80 105
80 109
80 114
80 127
80 161
80 216
80 228
80 231
81 82
81 83
81 90
81 92
81 93
81 96
81 97
81 99
81 102
81 105
81 109
81 113
81 114
81 127
81 129
81 136
81 145
81 146
81 148
81 153
81 155
81 156
81 157
81 158
81 159
81 160
81 230
82 83
82 94
82 95
82 96
82 98
82 99
82 102
82 105
82 109
82 114
82 161
82 173
82 176
82 178
82 194
82 197
82 226
82 227
82 229
82 233
83 94
83 95
83 96
83 98
83 99
83 102
83 105
83 109
83 114
83 161
84 85
84 86
84 87
84 99
84 102
84 117
84 134
84 147
84 149
84 162
84 163
84 181
84 184
84 199
84 202
84 218
84 220
84 221
85 86
85 87
85 99
85 102
85 134
85 147
85 149
85 162
85 184
85 199
85 202
85 218
85 220
85 221
86 87
86 99
86 102
86 117
86 134
86 147
86 149
86 162
86 184
86 199
86 202
86 218
86 220
86 221
87 99
87 102
87 134
87 147
87 149
87 162
87 184
87 199
87 202
87 218
87 220
87 221
88 89
88 91
88 103
88 111
88 120
88 126
88 138
88 150
88 151
88 154
88 168
88 185
88 187
88 190
88 203
88 209
88 224
89 91
89 120
89 138
89 150
89 151
89 154
89 168
89 185
89 187
89 190
89 203
89 209
89 224
90 92
90 93
90 97
90 109
90 119
90 122
90 126
90 131
90 133
90 135
90 140
90 141
90 148
90 153
90 155
90 156
90 157
90 158
90 159
90 160
90 171
90 172
90 180
90 183
90 191
90 200
90 201
90 205
90 208
90 210
90 227
90 228
90 230
91 120
91 138
91 150
91 151
91 154
91 168
91 170
91 185
91 187
91 190
91 203
91 209
91 224
92 93
92 97
92 109
92 148
92 153
92 155
92 156
92 157
92 158
92 159
92 160
92 230
93 97
93 109
93 230
94 95
94 96
94 98
94 114
94 136
94 157
94 161
94 195
94 204
94 206
94 214
94 215
94 219
94 222
94 223
94 232
95 96
95 98
95 114
95 127
95 161
95 216
95 228
95 231
96 97
96 98
96 113
96 114
96 127
96 129
96 136
96 145
96 146
96 157
96 159
96 160
96 161
96 171
96 172
96 174
96 175
96 180
96 183
96 187
96 191
96 192
96 193
96 216
96 228
96 231
97 109
97 113
97 127
97 129
97 136
97 145
97 146
97 148
97 153
97 155
97 156
97 157
97 158
97 159
97 160
97 230
98 114
98 161
99 102
99 103
99 104
99 105
99 109
99 111
99 114
99 119
99 126
99 134
99 147
99 149
99 162
99 184
99 199
99 202
99 205
99 218
99 220
99 221
100 101
100 106
100 107
100 108
100 110
100 112
100 113
100 115
100 116
100 117
100 118
100 120
100 121
100 125
100 131
100 133
100 135
100 148
100 154
100 180
100 183
100 200
100 201
101 106
101 107
101 108
101 110
101 112
101 113
101 115
101 116
101 117
101 118
101 120
101 121
101 125
101 131
101 133
101 135
101 148
101 154
101 180
101 183
101 200
101 201
102 103
102 104
102 105
102 109
102 111
102 114
102 119
102 126
102 134
102 147
102 149
102 162
102 184
102 199
102 202
102 205
102 218
102 220
102 221
103 104
103 105
103 109
103 111
103 114
103 119
103 126
103 150
103 185
103 203
103 205
104 105
104 109
104 111
104 114
104 119
104 126
104 205
105 109
105 111
105 114
105 119
105 126
105 205
106 107
106 108
106 110
106 112
106 113
106 115
106 116
106 117
106 118
106 120
106 121
106 125
106 131
106 133
106 135
106 148
106 154
106 180
106 183
106 200
106 201
107 108
107 110
107 112
107 113
107 154
108 110
108 112
108 113
108 123
108 124
108 127
108 128
108 129
108 130
108 154
109 111
109 114
109 119
109 126
109 205
109 230
110 112
110 113
110 123
110 124
110 127
110 128
110 129
110 130
110 132
110 137
110 143
110 144
110 154
110 156
110 158
110 181
110 182
110 186
110 188
110 196
110 213
111 114
111 119
111 125
111 126
111 150
111 185
111 203
111 205
112 113
112 123
112 124
112 127
112 128
112 129
112 130
112 132
112 137
112 143
112 144
112 154
112 156
112 158
112 213
113 123
113 124
113 127
113 128
113 129
113 130
113 136
113 145
113 146
113 154
113 157
113 159
113 160
114 119
114 126
114 161
114 205
115 116
115 117
115 118
115 120
115 121
115 125
115 131
115 133
115 135
115 148
115 180
115 183
115 200
115 201
116 117
116 118
116 120
116 121
116 125
116 131
116 133
116 135
116 148
116 180
116 183
116 200
116 201
117 118
117 120
117 121
117 125
117 131
117 133
117 135
117 148
117 180
117 183
117 200
117 201
117 202
117 220
118 120
118 121
118 125
118 131
118 133
118 135
118 148
118 180
118 183
118 200
118 201
119 122
119 126
119 140
119 153
119 171
119 191
119 205
119 208
119 227
120 121
120 125
120 131
120 133
120 135
120 138
120 148
120 150
120 151
120 154
120 168
120 180
120 183
120 185
120 187
120 190
120 200
120 201
120 203
120 209
120 224
121 125
121 131
121 133
121 135
121 148
121 180
121 183
121 200
121 201
122 126
122 140
122 153
122 171
122 191
122 205
122 208
122 227
123 124
123 127
123 128
123 129
123 130
124 127
124 128
124 129
124 130
124 134
124 138
124 139
124 142
124 175
124 176
124 187
124 193
124 194
124 212
124 226
124 231
125 126
125 131
125 133
125 135
125 148
125 180
125 183
125 200
125 201
126 140
126 150
126 153
126 171
126 185
126 191
126 203
126 205
126 208
126 227
127 128
127 129
127 130
127 136
127 145
127 146
127 157
127 159
127 160
127 199
127 202
127 203
127 204
127 206
127 207
127 209
127 214
127 215
127 216
127 217
127 228
127 231
128 129
128 130
128 132
128 137
128 143
128 144
128 156
128 158
128 213
129 130
129 136
129 145
129 146
129 157
129 159
129 160
129 199
129 202
129 203
129 204
129 206
129 207
129 209
129 214
129 215
129 216
129 217
130 132
130 137
130 143
130 144
130 156
130 158
130 168
130 173
130 184
130 185
130 189
130 190
130 194
130 195
130 197
130 198
130 213
131 133
131 135
131 140
131 141
131 148
131 153
131 171
131 172
131 180
131 183
131 191
131 200
131 201
131 205
131 208
131 210
131 227
131 228
132 136
132 137
132 143
132 144
132 156
132 158
132 163
132 164
132 165
132 166
132 167
132 170
132 181
132 182
132 186
132 188
132 196
132 204
132 206
132 213
132 219
132 222
132 223
133 135
133 140
133 141
133 148
133 153
133 171
133 172
133 180
133 183
133 191
133 200
133 201
133 205
133 208
133 210
133 227
133 228
134 138
134 139
134 142
134 147
134 149
134 150
134 151
134 152
134 154
134 161
134 162
134 175
134 176
134 184
134 187
134 193
134 194
134 199
134 202
134 212
134 218
134 220
134 221
134 226
134 231
135 140
135 141
135 148
135 153
135 171
135 172
135 180
135 183
135 191
135 200
135 201
135 205
135 208
135 210
135 227
135 228
136 137
136 145
136 146
136 157
136 159
136 160
136 163
136 164
136 165
136 166
136 167
136 170
136 181
136 182
136 186
136 188
136 195
136 199
136 202
136 203
136 204
136 206
136 207
136 209
136 214
136 215
136 216
136 217
136 219
136 222
136 223
136 232
137 143
137 144
137 156
137 158
137 163
137 164
137 165
137 166
137 167
137 170
137 181
137 182
137 186
137 188
137 196
137 204
137 206
137 213
137 219
137 222
137 223
138 139
138 142
138 147
138 149
138 150
138 151
138 152
138 154
138 161
138 168
138 175
138 176
138 185
138 187
138 190
138 193
138 194
138 203
138 209
138 212
138 224
138 226
138 231
139 142
139 147
139 149
139 150
139 151
139 152
139 154
139 161
139 175
139 176
139 187
139 193
139 194
139 212
139 226
139 231
140 141
140 148
140 153
140 171
140 172
140 180
140 183
140 191
140 200
140 201
140 205
140 208
140 210
140 227
140 228
141 148
141 153
141 171
141 172
141 180
141 183
141 191
141 200
141 201
141 205
141 208
141 210
141 227
141 228
142 175
142 176
142 187
142 193
142 194
142 212
142 226
142 231
143 144
143 156
143 158
143 181
143 182
143 186
143 188
143 196
143 213
144 156
144 158
144 213
145 146
145 157
145 159
145 160
146 157
146 159
146 160
146 199
146 202
146 203
146 204
146 206
146 207
146 209
146 214
146 215
146 216
146 217
147 149
147 150
147 151
147 152
147 154
147 161
147 162
147 184
147 187
147 199
147 202
147 218
147 220
147 221
147 226
148 153
148 155
148 156
148 157
148 158
148 159
148 160
148 171
148 172
148 180
148 183
148 191
148 200
148 201
148 205
148 208
148 210
148 227
148 228
149 150
149 151
149 152
149 154
149 161
149 162
149 184
149 187
149 199
149 202
149 218
149 220
149 221
149 226
150 151
150 152
150 154
150 161
150 168
150 185
150 187
150 190
150 203
150 209
150 224
150 226
151 152
151 154
151 161
151 168
151 185
151 187
151 190
151 203
151 209
151 224
151 226
152 154
152 161
152 187
152 226
153 155
153 156
153 157
153 158
153 159
153 160
153 171
153 172
153 180
153 183
153 191
153 200
153 201
153 205
153 208
153 210
153 227
153 228
154 161
154 168
154 170
154 185
154 187
154 190
154 203
154 209
154 224
154 226
155 156
155 157
155 158
155 159
155 160
156 157
156 158
156 159
156 160
156 181
156 182
156 186
156 188
156 196
156 213
157 158
157 159
157 160
157 195
157 199
157 202
157 203
157 204
157 206
157 207
157 209
157 214
157 215
157 216
157 217
157 219
157 222
157 223
157 232
158 159
158 160
158 213
159 160
160 199
160 202
160 203
160 204
160 206
160 207
160 209
160 214
160 215
160 216
160 217
161 187
161 226
162 168
162 169
162 176
162 178
162 179
162 184
162 185
162 189
162 190
162 199
162 202
162 203
162 207
162 209
162 218
162 220
162 221
162 224
162 225
162 230
163 164
163 165
163 166
163 167
163 170
163 181
163 182
163 186
163 188
163 204
163 206
163 219
163 222
163 223
164 165
164 166
164 167
164 170
164 181
164 182
164 186
164 188
164 204
164 206
164 219
164 222
164 223
165 166
165 167
165 170
165 181
165 182
165 186
165 188
165 204
165 206
165 219
165 222
165 223
166 167
166 170
166 181
166 182
166 186
166 188
166 204
166 206
166 219
166 222
166 223
167 170
167 181
167 182
167 186
167 188
167 204
167 206
167 219
167 222
167 223
168 169
168 171
168 172
168 173
168 174
168 175
168 177
168 184
168 185
168 187
168 189
168 190
168 194
168 195
168 197
168 198
168 199
168 202
168 203
168 207
168 209
168 215
168 218
168 220
168 221
168 224
168 225
168 230
169 176
169 178
169 179
169 184
169 185
169 189
169 190
169 199
169 202
169 203
169 207
169 209
169 218
169 220
169 221
169 224
169 225
169 230
170 181
170 182
170 186
170 188
170 190
170 204
170 206
170 209
170 219
170 222
170 223
171 172
171 173
171 174
171 175
171 177
171 180
171 183
171 187
171 191
171 192
171 193
171 200
171 201
171 205
171 208
171 210
171 215
171 227
171 228
171 231
172 173
172 174
172 175
172 177
172 180
172 183
172 187
172 191
172 192
172 193
172 200
172 201
172 205
172 208
172 210
172 215
172 227
172 228
172 231
173 174
173 175
173 176
173 177
173 178
173 184
173 185
173 189
173 190
173 194
173 195
173 197
173 198
173 200
173 201
173 205
173 208
173 210
173 211
173 212
173 213
173 215
173 226
173 227
173 229
173 233
174 175
174 177
174 180
174 183
174 187
174 191
174 192
174 193
174 215
174 228
174 231
175 176
175 177
175 180
175 183
175 187
175 191
175 192
175 193
175 194
175 212
175 215
175 226
175 228
175 231
176 178
176 179
176 187
176 193
176 194
176 197
176 200
176 201
176 205
176 208
176 210
176 211
176 212
176 213
176 226
176 227
176 229
176 231
176 233
177 215
178 179
178 194
178 197
178 226
178 227
178 229
178 233
180 183
180 187
180 191
180 192
180 193
180 200
180 201
180 205
180 208
180 210
180 227
180 228
180 231
181 182
181 186
181 188
181 196
181 204
181 206
181 213
181 219
181 222
181 223
182 186
182 188
182 196
182 204
182 206
182 213
182 219
182 222
182 223
183 187
183 191
183 192
183 193
183 200
183 201
183 205
183 208
183 210
183 227
183 228
183 231
184 185
184 189
184 190
184 194
184 195
184 197
184 198
184 199
184 202
184 203
184 207
184 209
184 218
184 220
184 221
184 224
184 225
184 230
185 187
185 189
185 190
185 194
185 195
185 197
185 198
185 199
185 202
185 203
185 207
185 209
185 218
185 220
185 221
185 224
185 225
185 230
186 188
186 196
186 204
186 206
186 213
186 219
186 222
186 223
187 190
187 191
187 192
187 193
187 194
187 203
187 209
187 212
187 224
187 226
187 228
187 231
188 196
188 204
188 206
188 213
188 219
188 222
188 223
189 190
189 194
189 195
189 197
189 198
189 199
189 202
189 203
189 207
189 209
189 218
189 220
189 221
189 224
189 225
189 230
190 194
190 195
190 197
190 198
190 199
190 202
190 203
190 207
190 209
190 218
190 220
190 221
190 224
190 225
190 230
191 192
191 193
191 200
191 201
191 205
191 208
191 210
191 227
191 228
191 231
192 193
192 228
192 231
193 194
193 212
193 226
193 228
193 231
194 195
194 197
194 198
194 200
194 201
194 205
194 208
194 210
194 211
194 212
194 213
194 226
194 227
194 229
194 231
194 233
195 197
195 198
195 204
195 206
195 214
195 215
195 219
195 222
195 223
195 232
196 213
197 198
197 226
197 227
197 229
197 233
199 202
199 203
199 204
199 206
199 207
199 209
199 214
199 215
199 216
199 217
199 218
199 220
199 221
199 224
199 225
199 230
200 201
200 205
200 208
200 210
200 211
200 212
200 213
200 226
200 227
200 228
200 229
201 205
201 208
201 210
201 211
201 212
201 213
201 226
201 227
201 228
201 229
202 203
202 204
202 206
202 207
202 209
202 214
202 215
202 216
202 217
202 218
202 220
202 221
202 224
202 225
202 230
203 204
203 206
203 207
203 209
203 214
203 215
203 216
203 217
203 218
203 220
203 221
203 224
203 225
203 230
204 206
204 207
204 209
204 214
204 215
204 216
204 217
204 219
204 222
204 223
204 232
205 208
205 210
205 211
205 212
205 213
205 226
205 227
205 228
205 229
206 207
206 209
206 214
206 215
206 216
206 217
206 219
206 222
206 223
206 232
207 209
207 214
207 215
207 216
207 217
207 218
207 220
207 221
207 224
207 225
207 230
208 210
208 211
208 212
208 213
208 226
208 227
208 228
208 229
209 214
209 215
209 216
209 217
209 218
209 220
209 221
209 224
209 225
209 230
210 211
210 212
210 213
210 226
210 227
210 228
210 229
211 212
211 213
211 226
211 227
211 229
212 213
212 226
212 227
212 229
212 231
213 226
213 227
213 229
214 215
214 216
214 217
214 219
214 222
214 223
214 232
215 216
215 217
215 219
215 222
215 223
215 232
216 217
216 228
216 231
218 220
218 221
218 224
218 225
218 230
219 222
219 223
219 232
220 221
220 224
220 225
220 230
221 224
221 225
221 230
222 223
222 232
223 232
224 225
224 230
225 230
226 227
226 229
226 231
226 233
227 228
227 229
227 233
228 231
229 233
0
1 2
3 4
5 6
7
8
9
10 11
12 13
14
15 16
17
18
19
20 21
22
23
24
25 26
27
28
29 30
31 32
33
34
35
36 37
38
39 40
41
42 43
44
45 46
47 48
49
50 51
52
53
54 55
56
57 58
59 60
61
62
63 64
65
66 67
68 69
70
71 72
73
74
75
76
77 78
79
80
81 82
83
84 85
86
87
88
89
90 91
92
93
94
95
96 97
98
99
100
101 102
103
104
105 106
107
108
109
110 111
112
113
114
115
116 117
118
119 120
121
122
123
124
125 126
127 128
129 130
131
132 133
134 135
136 137
138
139
140
141
142
143
144
145
146
147 148
149
150
151
152
153
154
155
156 157
158
159
160 161
162 163
164
165
166
167 168
169
170 171
172
173 174
175 176
177
178
179
180 181
182 183
184
185 186
187 188
189
190 191
192
193 194
195 196
197
198
199 200
201 202
203 204
205 206
207
208 209
210
211
212
213 214
215 216
217
218
219 220
221
222
223 224
225 226
227
228
229
230 231
232
233
